
Log started (V22.1.1.0) Tue Jan 23 15:31:37 2024


Problem 'C:\Users\frede\AppData\Local\Temp\jalinopt\lp\206.pl' read.
Read time = 0.02 sec. (0.00 ticks)
Version identifier: 22.1.1.0 | 2022-11-27 | 9160aff4d
Found incumbent of value 0.000000 after 0.00 sec. (0.00 ticks)

Root node processing (before b&c):
  Real time             =    0.00 sec. (0.00 ticks)
Parallel b&c, 20 threads:
  Real time             =    0.00 sec. (0.00 ticks)
  Sync time (average)   =    0.00 sec.
  Wait time (average)   =    0.00 sec.
                          ------------
Total (root+branch&cut) =    0.00 sec. (0.00 ticks)

Solution pool: 1 solution saved.

MIP - Integer optimal solution:  Objective =  0.0000000000e+00
Solution time =    0.00 sec.  Iterations = 0  Nodes = 0 (1)
Deterministic time = 0.00 ticks  (1.22 ticks/sec)


Incumbent solution
All variables matching '*' are 0.

Log started (V22.1.1.0) Tue Jan 23 15:31:37 2024


Problem 'C:\Users\frede\AppData\Local\Temp\jalinopt\lp\207.pl' read.
Read time = 0.02 sec. (0.00 ticks)
Version identifier: 22.1.1.0 | 2022-11-27 | 9160aff4d
Found incumbent of value 1.000000 after 0.00 sec. (0.00 ticks)
Tried aggregator 2 times.
MIP Presolve eliminated 3 rows and 6 columns.
MIP Presolve added 3 rows and 3 columns.
Aggregator did 3 substitutions.
All rows and columns eliminated.
Presolve time = 0.00 sec. (0.01 ticks)

Root node processing (before b&c):
  Real time             =    0.00 sec. (0.01 ticks)
Parallel b&c, 20 threads:
  Real time             =    0.00 sec. (0.00 ticks)
  Sync time (average)   =    0.00 sec.
  Wait time (average)   =    0.00 sec.
                          ------------
Total (root+branch&cut) =    0.00 sec. (0.01 ticks)

Solution pool: 1 solution saved.

MIP - Integer optimal solution:  Objective =  1.0000000000e+00
Solution time =    0.02 sec.  Iterations = 0  Nodes = 0 (1)
Deterministic time = 0.01 ticks  (0.57 ticks/sec)


Incumbent solution
Variable Name           Solution Value
v_s                           1.000000
All other variables matching '*' are 0.

Log started (V22.1.1.0) Tue Jan 23 15:31:37 2024


Problem 'C:\Users\frede\AppData\Local\Temp\jalinopt\lp\208.pl' read.
Read time = 0.00 sec. (0.00 ticks)
Version identifier: 22.1.1.0 | 2022-11-27 | 9160aff4d
Found incumbent of value 0.000000 after 0.00 sec. (0.00 ticks)

Root node processing (before b&c):
  Real time             =    0.00 sec. (0.00 ticks)
Parallel b&c, 20 threads:
  Real time             =    0.00 sec. (0.00 ticks)
  Sync time (average)   =    0.00 sec.
  Wait time (average)   =    0.00 sec.
                          ------------
Total (root+branch&cut) =    0.00 sec. (0.00 ticks)

Solution pool: 1 solution saved.

MIP - Integer optimal solution:  Objective =  0.0000000000e+00
Solution time =    0.02 sec.  Iterations = 0  Nodes = 0 (1)
Deterministic time = 0.00 ticks  (0.09 ticks/sec)


Incumbent solution
Variable Name           Solution Value
m_s                           1.000000
All other variables matching '*' are 0.

Log started (V22.1.1.0) Tue Jan 23 15:31:37 2024


Problem 'C:\Users\frede\AppData\Local\Temp\jalinopt\lp\209.pl' read.
Read time = 0.02 sec. (0.00 ticks)
Version identifier: 22.1.1.0 | 2022-11-27 | 9160aff4d
Found incumbent of value 1.000000 after 0.00 sec. (0.00 ticks)
Tried aggregator 2 times.
MIP Presolve eliminated 3 rows and 6 columns.
MIP Presolve added 3 rows and 3 columns.
Aggregator did 3 substitutions.
All rows and columns eliminated.
Presolve time = 0.00 sec. (0.01 ticks)

Root node processing (before b&c):
  Real time             =    0.00 sec. (0.01 ticks)
Parallel b&c, 20 threads:
  Real time             =    0.00 sec. (0.00 ticks)
  Sync time (average)   =    0.00 sec.
  Wait time (average)   =    0.00 sec.
                          ------------
Total (root+branch&cut) =    0.00 sec. (0.01 ticks)

Solution pool: 1 solution saved.

MIP - Integer optimal solution:  Objective =  1.0000000000e+00
Solution time =    0.00 sec.  Iterations = 0  Nodes = 0 (1)
Deterministic time = 0.01 ticks  (8.55 ticks/sec)


Incumbent solution
Variable Name           Solution Value
v_s                           1.000000
m_s                           1.000000
All other variables matching '*' are 0.

Log started (V22.1.1.0) Tue Jan 23 15:31:37 2024


Problem 'C:\Users\frede\AppData\Local\Temp\jalinopt\lp\210.pl' read.
Read time = 0.00 sec. (0.00 ticks)
Version identifier: 22.1.1.0 | 2022-11-27 | 9160aff4d
Found incumbent of value 0.000000 after 0.00 sec. (0.00 ticks)

Root node processing (before b&c):
  Real time             =    0.00 sec. (0.00 ticks)
Parallel b&c, 20 threads:
  Real time             =    0.00 sec. (0.00 ticks)
  Sync time (average)   =    0.00 sec.
  Wait time (average)   =    0.00 sec.
                          ------------
Total (root+branch&cut) =    0.00 sec. (0.00 ticks)

Solution pool: 1 solution saved.

MIP - Integer optimal solution:  Objective =  0.0000000000e+00
Solution time =    0.02 sec.  Iterations = 0  Nodes = 0 (1)
Deterministic time = 0.00 ticks  (0.09 ticks/sec)


Incumbent solution
Variable Name           Solution Value
u1                            1.000000
All other variables matching '*' are 0.

Log started (V22.1.1.0) Tue Jan 23 15:31:38 2024


Problem 'C:\Users\frede\AppData\Local\Temp\jalinopt\lp\211.pl' read.
Read time = 0.02 sec. (0.00 ticks)
Version identifier: 22.1.1.0 | 2022-11-27 | 9160aff4d
Found incumbent of value 1.000000 after 0.00 sec. (0.00 ticks)
Tried aggregator 2 times.
MIP Presolve eliminated 3 rows and 6 columns.
MIP Presolve added 3 rows and 3 columns.
Aggregator did 3 substitutions.
All rows and columns eliminated.
Presolve time = 0.00 sec. (0.01 ticks)

Root node processing (before b&c):
  Real time             =    0.00 sec. (0.01 ticks)
Parallel b&c, 20 threads:
  Real time             =    0.00 sec. (0.00 ticks)
  Sync time (average)   =    0.00 sec.
  Wait time (average)   =    0.00 sec.
                          ------------
Total (root+branch&cut) =    0.00 sec. (0.01 ticks)

Solution pool: 1 solution saved.

MIP - Integer optimal solution:  Objective =  1.0000000000e+00
Solution time =    0.00 sec.  Iterations = 0  Nodes = 0 (1)
Deterministic time = 0.01 ticks  (8.57 ticks/sec)


Incumbent solution
Variable Name           Solution Value
v_s                           1.000000
u1                            1.000000
All other variables matching '*' are 0.

Log started (V22.1.1.0) Tue Jan 23 15:31:38 2024


Problem 'C:\Users\frede\AppData\Local\Temp\jalinopt\lp\212.pl' read.
Read time = 0.00 sec. (0.00 ticks)
Version identifier: 22.1.1.0 | 2022-11-27 | 9160aff4d
Found incumbent of value 0.000000 after 0.00 sec. (0.00 ticks)

Root node processing (before b&c):
  Real time             =    0.00 sec. (0.00 ticks)
Parallel b&c, 20 threads:
  Real time             =    0.00 sec. (0.00 ticks)
  Sync time (average)   =    0.00 sec.
  Wait time (average)   =    0.00 sec.
                          ------------
Total (root+branch&cut) =    0.00 sec. (0.00 ticks)

Solution pool: 1 solution saved.

MIP - Integer optimal solution:  Objective =  0.0000000000e+00
Solution time =    0.00 sec.  Iterations = 0  Nodes = 0 (1)
Deterministic time = 0.00 ticks  (1.38 ticks/sec)


Incumbent solution
Variable Name           Solution Value
m_s                           1.000000
u1                            1.000000
All other variables matching '*' are 0.

Log started (V22.1.1.0) Tue Jan 23 15:31:38 2024


Problem 'C:\Users\frede\AppData\Local\Temp\jalinopt\lp\213.pl' read.
Read time = 0.00 sec. (0.00 ticks)
Version identifier: 22.1.1.0 | 2022-11-27 | 9160aff4d
Found incumbent of value 1.000000 after 0.00 sec. (0.00 ticks)
Tried aggregator 2 times.
MIP Presolve eliminated 3 rows and 6 columns.
MIP Presolve added 3 rows and 3 columns.
Aggregator did 3 substitutions.
All rows and columns eliminated.
Presolve time = 0.00 sec. (0.01 ticks)

Root node processing (before b&c):
  Real time             =    0.00 sec. (0.01 ticks)
Parallel b&c, 20 threads:
  Real time             =    0.00 sec. (0.00 ticks)
  Sync time (average)   =    0.00 sec.
  Wait time (average)   =    0.00 sec.
                          ------------
Total (root+branch&cut) =    0.00 sec. (0.01 ticks)

Solution pool: 1 solution saved.

MIP - Integer optimal solution:  Objective =  1.0000000000e+00
Solution time =    0.02 sec.  Iterations = 0  Nodes = 0 (1)
Deterministic time = 0.01 ticks  (0.54 ticks/sec)


Incumbent solution
Variable Name           Solution Value
v_s                           1.000000
m_s                           1.000000
u1                            1.000000
All other variables matching '*' are 0.
